30 5
91 20 22 61 74 86 76 88 86 94 14 55 58 76 34 69 42 58 85 88 44 11 24 20 87 74 38 89 92 29
24 93 15 28 44 54 27 55 45 99 28 33 60 87 12 50 32 82 40 96 62 57 54 84 79 87 64 30 68 48
51 80 68 97 73 66 90 45 52 20 46 65 16 14 48 34 18 25 13 27 17 15 61 25 85 56 65 51 31 47
69 46 93 97 19 36 40 24 22 50 92 82 90 77 16 40 31 38 30 16 40 68 30 89 31 52 97 82 73 63
89 19 70 91 81 10 12 53 83 38 31 46 76 92 23 97 37 75 47 73 53 27 26 63 24 21 12 10 89 92
